6098
6207
9992
542
8745
9481
6643
6199
8517
8949
3267
9120
9802
1826
8893
9573
2812
2315
2757
1477
4474
6389
3679
5793
7154
918
2200
1978
860
1199
4091
7551
1916
6100
2343
7560
9117
432
6252
1692
2645
5741
883
5900
5714
4508
6098
8327
6190
10010
